Instance0
Gap



17.28%
15.27%
13.30%
12.50%
6.78%
6.78%
6.78%
6.31%
6.03%
6.01%
5.45%
4.68%
3.84%
3.56%
3.23%
3.00%
2.96%
2.95%
2.93%
2.10%
0.72%
0.72%
0.00%
CPXPARAM_MIP_Cuts_Gomory-Disjunctive-LiftProj-MIRCut:Gomory 0
CPXPARAM_MIP_Cuts_Gomory-Disjunctive-LiftProj-MIRCut:Disjunctive 8
CPXPARAM_MIP_Cuts_Gomory-Disjunctive-LiftProj-MIRCut:LiftProj 0
CPXPARAM_MIP_Cuts_Gomory-Disjunctive-LiftProj-MIRCut:MIRCut 0
Instance1
Gap



67.95%
64.60%
58.47%
53.99%
53.29%
52.93%
52.48%
52.24%
52.18%
51.37%
50.26%
50.13%
50.13%
50.11%
50.11%
50.05%
CPXPARAM_MIP_Cuts_Gomory-Disjunctive-LiftProj-MIRCut:Gomory 1
CPXPARAM_MIP_Cuts_Gomory-Disjunctive-LiftProj-MIRCut:Disjunctive 9
CPXPARAM_MIP_Cuts_Gomory-Disjunctive-LiftProj-MIRCut:LiftProj 0
CPXPARAM_MIP_Cuts_Gomory-Disjunctive-LiftProj-MIRCut:MIRCut 2
Instance2
Gap


0.35%
0.35%
0.35%
0.35%
0.32%
0
CPXPARAM_MIP_Cuts_Gomory-Disjunctive-LiftProj-MIRCut:Gomory 0
CPXPARAM_MIP_Cuts_Gomory-Disjunctive-LiftProj-MIRCut:Disjunctive 0
CPXPARAM_MIP_Cuts_Gomory-Disjunctive-LiftProj-MIRCut:LiftProj 0
CPXPARAM_MIP_Cuts_Gomory-Disjunctive-LiftProj-MIRCut:MIRCut 0
Instance3
Gap

0.00%
0
CPXPARAM_MIP_Cuts_Gomory-Disjunctive-LiftProj-MIRCut:Gomory 0
CPXPARAM_MIP_Cuts_Gomory-Disjunctive-LiftProj-MIRCut:Disjunctive 0
CPXPARAM_MIP_Cuts_Gomory-Disjunctive-LiftProj-MIRCut:LiftProj 0
CPXPARAM_MIP_Cuts_Gomory-Disjunctive-LiftProj-MIRCut:MIRCut 0
Instance4
Gap



5.55%
5.55%
5.55%
4.96%
4.79%
4.70%
4.27%
4.11%
4.09%
3.85%
3.79%
3.74%
3.53%
3.42%
3.30%
3.11%
2.76%
2.66%
2.39%
2.32%
2.30%
2.12%
2.11%
0
CPXPARAM_MIP_Cuts_Gomory-Disjunctive-LiftProj-MIRCut:Gomory 1
CPXPARAM_MIP_Cuts_Gomory-Disjunctive-LiftProj-MIRCut:Disjunctive 15
CPXPARAM_MIP_Cuts_Gomory-Disjunctive-LiftProj-MIRCut:LiftProj 0
CPXPARAM_MIP_Cuts_Gomory-Disjunctive-LiftProj-MIRCut:MIRCut 0
Instance5
Gap



74.89%
63.89%
60.37%
55.32%
55.22%
55.01%
54.29%
51.92%
47.21%
45.30%
44.86%
44.39%
42.63%
38.45%
38.24%
38.18%
37.90%
37.38%
36.92%
36.89%
36.59%
36.48%
36.45%
36.20%
36.13%
36.13%
36.03%
35.97%
35.92%
35.74%
35.74%
32.11%
CPXPARAM_MIP_Cuts_Gomory-Disjunctive-LiftProj-MIRCut:Gomory 0
CPXPARAM_MIP_Cuts_Gomory-Disjunctive-LiftProj-MIRCut:Disjunctive 15
CPXPARAM_MIP_Cuts_Gomory-Disjunctive-LiftProj-MIRCut:LiftProj 0
CPXPARAM_MIP_Cuts_Gomory-Disjunctive-LiftProj-MIRCut:MIRCut 1
Instance6
Gap
111.50%
92.96%
92.96%
92.96%
CPXPARAM_MIP_Cuts_Gomory-Disjunctive-LiftProj-MIRCut:Gomory 0
CPXPARAM_MIP_Cuts_Gomory-Disjunctive-LiftProj-MIRCut:Disjunctive 0
CPXPARAM_MIP_Cuts_Gomory-Disjunctive-LiftProj-MIRCut:LiftProj 0
CPXPARAM_MIP_Cuts_Gomory-Disjunctive-LiftProj-MIRCut:MIRCut 1
Instance7
Gap

23.59%
23.59%
23.59%
23.59%
23.19%
17.29%
12.33%
9.86%
1.52%
0
CPXPARAM_MIP_Cuts_Gomory-Disjunctive-LiftProj-MIRCut:Gomory 0
CPXPARAM_MIP_Cuts_Gomory-Disjunctive-LiftProj-MIRCut:Disjunctive 2
CPXPARAM_MIP_Cuts_Gomory-Disjunctive-LiftProj-MIRCut:LiftProj 3
CPXPARAM_MIP_Cuts_Gomory-Disjunctive-LiftProj-MIRCut:MIRCut 0
Instance8
Gap






2.20%
2.20%
2.20%
2.19%
2.15%
2.14%
2.13%
2.12%
2.08%
2.08%
2.06%
1.57%
1.20%
0.96%
0.82%
0.16%
0.16%
0
CPXPARAM_MIP_Cuts_Gomory-Disjunctive-LiftProj-MIRCut:Gomory 0
CPXPARAM_MIP_Cuts_Gomory-Disjunctive-LiftProj-MIRCut:Disjunctive 3
CPXPARAM_MIP_Cuts_Gomory-Disjunctive-LiftProj-MIRCut:LiftProj 0
CPXPARAM_MIP_Cuts_Gomory-Disjunctive-LiftProj-MIRCut:MIRCut 0
Instance9
Gap


























0
CPXPARAM_MIP_Cuts_Gomory-Disjunctive-LiftProj-MIRCut:Gomory 0
CPXPARAM_MIP_Cuts_Gomory-Disjunctive-LiftProj-MIRCut:Disjunctive 20
CPXPARAM_MIP_Cuts_Gomory-Disjunctive-LiftProj-MIRCut:LiftProj 0
CPXPARAM_MIP_Cuts_Gomory-Disjunctive-LiftProj-MIRCut:MIRCut 0
Instance10
Gap

0.01%
CPXPARAM_MIP_Cuts_Gomory-Disjunctive-LiftProj-MIRCut:Gomory 0
CPXPARAM_MIP_Cuts_Gomory-Disjunctive-LiftProj-MIRCut:Disjunctive 0
CPXPARAM_MIP_Cuts_Gomory-Disjunctive-LiftProj-MIRCut:LiftProj 0
CPXPARAM_MIP_Cuts_Gomory-Disjunctive-LiftProj-MIRCut:MIRCut 0
Instance11
Gap

0.02%
0.02%
0.02%
0
CPXPARAM_MIP_Cuts_Gomory-Disjunctive-LiftProj-MIRCut:Gomory 0
CPXPARAM_MIP_Cuts_Gomory-Disjunctive-LiftProj-MIRCut:Disjunctive 0
CPXPARAM_MIP_Cuts_Gomory-Disjunctive-LiftProj-MIRCut:LiftProj 0
CPXPARAM_MIP_Cuts_Gomory-Disjunctive-LiftProj-MIRCut:MIRCut 0
Instance12
Gap


























26.25%
25.33%
CPXPARAM_MIP_Cuts_Gomory-Disjunctive-LiftProj-MIRCut:Gomory 0
CPXPARAM_MIP_Cuts_Gomory-Disjunctive-LiftProj-MIRCut:Disjunctive 13
CPXPARAM_MIP_Cuts_Gomory-Disjunctive-LiftProj-MIRCut:LiftProj 0
CPXPARAM_MIP_Cuts_Gomory-Disjunctive-LiftProj-MIRCut:MIRCut 4
Instance13
Gap

37.35%
36.84%
34.72%
30.80%
27.58%
26.43%
26.36%
25.78%
25.24%
25.18%
24.72%
24.27%
24.14%
23.84%
23.55%
23.05%
22.94%
21.84%
21.81%
21.60%
21.35%
21.33%
21.23%
21.04%
CPXPARAM_MIP_Cuts_Gomory-Disjunctive-LiftProj-MIRCut:Gomory 0
CPXPARAM_MIP_Cuts_Gomory-Disjunctive-LiftProj-MIRCut:Disjunctive 13
CPXPARAM_MIP_Cuts_Gomory-Disjunctive-LiftProj-MIRCut:LiftProj 0
CPXPARAM_MIP_Cuts_Gomory-Disjunctive-LiftProj-MIRCut:MIRCut 1
Instance14
Gap

1.86%
1.86%
1.86%
1.86%
0
CPXPARAM_MIP_Cuts_Gomory-Disjunctive-LiftProj-MIRCut:Gomory 0
CPXPARAM_MIP_Cuts_Gomory-Disjunctive-LiftProj-MIRCut:Disjunctive 0
CPXPARAM_MIP_Cuts_Gomory-Disjunctive-LiftProj-MIRCut:LiftProj 0
CPXPARAM_MIP_Cuts_Gomory-Disjunctive-LiftProj-MIRCut:MIRCut 1
Instance15
Gap
112.51%
98.57%
98.57%
29.55%
29.55%
29.55%
CPXPARAM_MIP_Cuts_Gomory-Disjunctive-LiftProj-MIRCut:Gomory 0
CPXPARAM_MIP_Cuts_Gomory-Disjunctive-LiftProj-MIRCut:Disjunctive 0
CPXPARAM_MIP_Cuts_Gomory-Disjunctive-LiftProj-MIRCut:LiftProj 2
CPXPARAM_MIP_Cuts_Gomory-Disjunctive-LiftProj-MIRCut:MIRCut 2
Instance16
Gap



1.76%
1.76%
1.76%
1.49%
1.40%
1.31%
1.27%
1.22%
1.22%
1.22%
0.00%
CPXPARAM_MIP_Cuts_Gomory-Disjunctive-LiftProj-MIRCut:Gomory 0
CPXPARAM_MIP_Cuts_Gomory-Disjunctive-LiftProj-MIRCut:Disjunctive 4
CPXPARAM_MIP_Cuts_Gomory-Disjunctive-LiftProj-MIRCut:LiftProj 1
CPXPARAM_MIP_Cuts_Gomory-Disjunctive-LiftProj-MIRCut:MIRCut 2
Instance17
Gap



46.43%
42.93%
41.79%
41.08%
40.59%
40.48%
40.18%
40.13%
40.12%
39.82%
39.81%
39.59%
CPXPARAM_MIP_Cuts_Gomory-Disjunctive-LiftProj-MIRCut:Gomory 0
CPXPARAM_MIP_Cuts_Gomory-Disjunctive-LiftProj-MIRCut:Disjunctive 7
CPXPARAM_MIP_Cuts_Gomory-Disjunctive-LiftProj-MIRCut:LiftProj 1
CPXPARAM_MIP_Cuts_Gomory-Disjunctive-LiftProj-MIRCut:MIRCut 2
Instance18
Gap
110.91%
93.14%
93.14%
0.05%
0.05%
0.05%
0
CPXPARAM_MIP_Cuts_Gomory-Disjunctive-LiftProj-MIRCut:Gomory 0
CPXPARAM_MIP_Cuts_Gomory-Disjunctive-LiftProj-MIRCut:Disjunctive 1
CPXPARAM_MIP_Cuts_Gomory-Disjunctive-LiftProj-MIRCut:LiftProj 2
CPXPARAM_MIP_Cuts_Gomory-Disjunctive-LiftProj-MIRCut:MIRCut 2
Instance19
Gap
114.31%
97.72%
97.72%
1.26%
1.26%
1.26%
1.26%
1.26%
0.93%
CPXPARAM_MIP_Cuts_Gomory-Disjunctive-LiftProj-MIRCut:Gomory 0
CPXPARAM_MIP_Cuts_Gomory-Disjunctive-LiftProj-MIRCut:Disjunctive 0
CPXPARAM_MIP_Cuts_Gomory-Disjunctive-LiftProj-MIRCut:LiftProj 2
CPXPARAM_MIP_Cuts_Gomory-Disjunctive-LiftProj-MIRCut:MIRCut 2
Instance20
Gap


0.00%
CPXPARAM_MIP_Cuts_Gomory-Disjunctive-LiftProj-MIRCut:Gomory 0
CPXPARAM_MIP_Cuts_Gomory-Disjunctive-LiftProj-MIRCut:Disjunctive 0
CPXPARAM_MIP_Cuts_Gomory-Disjunctive-LiftProj-MIRCut:LiftProj 0
CPXPARAM_MIP_Cuts_Gomory-Disjunctive-LiftProj-MIRCut:MIRCut 0
Instance21
Gap



23.55%
21.89%
12.55%
12.55%
6.52%
5.08%
0
CPXPARAM_MIP_Cuts_Gomory-Disjunctive-LiftProj-MIRCut:Gomory 0
CPXPARAM_MIP_Cuts_Gomory-Disjunctive-LiftProj-MIRCut:Disjunctive 0
CPXPARAM_MIP_Cuts_Gomory-Disjunctive-LiftProj-MIRCut:LiftProj 0
CPXPARAM_MIP_Cuts_Gomory-Disjunctive-LiftProj-MIRCut:MIRCut 1
Instance22
Gap

0.39%
0.39%
0.39%
0.39%
0.39%
0.09%
0.04%
0.00%
CPXPARAM_MIP_Cuts_Gomory-Disjunctive-LiftProj-MIRCut:Gomory 0
CPXPARAM_MIP_Cuts_Gomory-Disjunctive-LiftProj-MIRCut:Disjunctive 1
CPXPARAM_MIP_Cuts_Gomory-Disjunctive-LiftProj-MIRCut:LiftProj 0
CPXPARAM_MIP_Cuts_Gomory-Disjunctive-LiftProj-MIRCut:MIRCut 1
Instance23
Gap

3.15%
3.15%
3.15%
3.10%
0
CPXPARAM_MIP_Cuts_Gomory-Disjunctive-LiftProj-MIRCut:Gomory 0
CPXPARAM_MIP_Cuts_Gomory-Disjunctive-LiftProj-MIRCut:Disjunctive 0
CPXPARAM_MIP_Cuts_Gomory-Disjunctive-LiftProj-MIRCut:LiftProj 1
CPXPARAM_MIP_Cuts_Gomory-Disjunctive-LiftProj-MIRCut:MIRCut 0
Instance24
Gap

10.00%
9.58%
7.36%
7.36%
7.36%
6.65%
6.17%
5.41%
5.17%
5.06%
5.05%
5.01%
4.97%
4.74%
4.57%
3.63%
3.42%
3.07%
2.25%
1.96%
1.96%
0
CPXPARAM_MIP_Cuts_Gomory-Disjunctive-LiftProj-MIRCut:Gomory 0
CPXPARAM_MIP_Cuts_Gomory-Disjunctive-LiftProj-MIRCut:Disjunctive 8
CPXPARAM_MIP_Cuts_Gomory-Disjunctive-LiftProj-MIRCut:LiftProj 0
CPXPARAM_MIP_Cuts_Gomory-Disjunctive-LiftProj-MIRCut:MIRCut 0
Instance25
Gap



0.00%
CPXPARAM_MIP_Cuts_Gomory-Disjunctive-LiftProj-MIRCut:Gomory 0
CPXPARAM_MIP_Cuts_Gomory-Disjunctive-LiftProj-MIRCut:Disjunctive 0
CPXPARAM_MIP_Cuts_Gomory-Disjunctive-LiftProj-MIRCut:LiftProj 0
CPXPARAM_MIP_Cuts_Gomory-Disjunctive-LiftProj-MIRCut:MIRCut 0
Instance26
Gap
0.00%
CPXPARAM_MIP_Cuts_Gomory-Disjunctive-LiftProj-MIRCut:Gomory 0
CPXPARAM_MIP_Cuts_Gomory-Disjunctive-LiftProj-MIRCut:Disjunctive 0
CPXPARAM_MIP_Cuts_Gomory-Disjunctive-LiftProj-MIRCut:LiftProj 0
CPXPARAM_MIP_Cuts_Gomory-Disjunctive-LiftProj-MIRCut:MIRCut 0
Instance27
Gap

0.42%
0.42%
0.42%
0.42%
0.42%
0.02%
CPXPARAM_MIP_Cuts_Gomory-Disjunctive-LiftProj-MIRCut:Gomory 0
CPXPARAM_MIP_Cuts_Gomory-Disjunctive-LiftProj-MIRCut:Disjunctive 0
CPXPARAM_MIP_Cuts_Gomory-Disjunctive-LiftProj-MIRCut:LiftProj 1
CPXPARAM_MIP_Cuts_Gomory-Disjunctive-LiftProj-MIRCut:MIRCut 1
Instance28
Gap





3.37%
3.37%
3.37%
3.21%
3.09%
2.74%
0
CPXPARAM_MIP_Cuts_Gomory-Disjunctive-LiftProj-MIRCut:Gomory 0
CPXPARAM_MIP_Cuts_Gomory-Disjunctive-LiftProj-MIRCut:Disjunctive 2
CPXPARAM_MIP_Cuts_Gomory-Disjunctive-LiftProj-MIRCut:LiftProj 2
CPXPARAM_MIP_Cuts_Gomory-Disjunctive-LiftProj-MIRCut:MIRCut 3
Instance29
Gap
111.49%
406.57%
82.87%
81.66%
79.43%
78.61%
77.93%
77.73%
77.69%
77.13%
75.43%
75.34%
75.25%
74.85%
74.77%
74.75%
74.67%
74.42%
74.26%
73.21%
72.52%
72.23%
71.74%
70.50%
68.97%
28.22%
28.22%
28.22%
24.58%
22.82%
21.90%
20.97%
20.69%
19.92%
19.52%
18.56%
18.06%
17.96%
17.94%
17.89%
17.87%
17.77%
17.73%
17.60%
17.54%
17.52%
17.40%
17.32%
17.29%
17.22%
17.18%
17.17%
17.13%
17.12%
10.94%
CPXPARAM_MIP_Cuts_Gomory-Disjunctive-LiftProj-MIRCut:Gomory 0
CPXPARAM_MIP_Cuts_Gomory-Disjunctive-LiftProj-MIRCut:Disjunctive 16
CPXPARAM_MIP_Cuts_Gomory-Disjunctive-LiftProj-MIRCut:LiftProj 3
CPXPARAM_MIP_Cuts_Gomory-Disjunctive-LiftProj-MIRCut:MIRCut 0
Instance30
Gap
120.75%
227.70%
17.33%
17.33%
17.33%
17.33%
CPXPARAM_MIP_Cuts_Gomory-Disjunctive-LiftProj-MIRCut:Gomory 0
CPXPARAM_MIP_Cuts_Gomory-Disjunctive-LiftProj-MIRCut:Disjunctive 2
CPXPARAM_MIP_Cuts_Gomory-Disjunctive-LiftProj-MIRCut:LiftProj 3
CPXPARAM_MIP_Cuts_Gomory-Disjunctive-LiftProj-MIRCut:MIRCut 0
Instance31
Gap

5.20%
5.20%
5.20%
5.20%
5.20%
0.00%
CPXPARAM_MIP_Cuts_Gomory-Disjunctive-LiftProj-MIRCut:Gomory 0
CPXPARAM_MIP_Cuts_Gomory-Disjunctive-LiftProj-MIRCut:Disjunctive 0
CPXPARAM_MIP_Cuts_Gomory-Disjunctive-LiftProj-MIRCut:LiftProj 2
CPXPARAM_MIP_Cuts_Gomory-Disjunctive-LiftProj-MIRCut:MIRCut 0
Instance32
Gap





4.27%
4.27%
4.27%
3.92%
3.44%
3.30%
3.30%
3.27%
2.89%
2.66%
2.60%
2.56%
2.39%
2.24%
2.12%
2.12%
1.67%
1.59%
1.52%
1.49%
1.40%
0.86%
0.37%
0
CPXPARAM_MIP_Cuts_Gomory-Disjunctive-LiftProj-MIRCut:Gomory 0
CPXPARAM_MIP_Cuts_Gomory-Disjunctive-LiftProj-MIRCut:Disjunctive 2
CPXPARAM_MIP_Cuts_Gomory-Disjunctive-LiftProj-MIRCut:LiftProj 0
CPXPARAM_MIP_Cuts_Gomory-Disjunctive-LiftProj-MIRCut:MIRCut 0
Instance33
Gap



36.81%
0
CPXPARAM_MIP_Cuts_Gomory-Disjunctive-LiftProj-MIRCut:Gomory 0
CPXPARAM_MIP_Cuts_Gomory-Disjunctive-LiftProj-MIRCut:Disjunctive 0
CPXPARAM_MIP_Cuts_Gomory-Disjunctive-LiftProj-MIRCut:LiftProj 1
CPXPARAM_MIP_Cuts_Gomory-Disjunctive-LiftProj-MIRCut:MIRCut 3
Instance34
Gap

0.14%
0
CPXPARAM_MIP_Cuts_Gomory-Disjunctive-LiftProj-MIRCut:Gomory 0
CPXPARAM_MIP_Cuts_Gomory-Disjunctive-LiftProj-MIRCut:Disjunctive 0
CPXPARAM_MIP_Cuts_Gomory-Disjunctive-LiftProj-MIRCut:LiftProj 0
CPXPARAM_MIP_Cuts_Gomory-Disjunctive-LiftProj-MIRCut:MIRCut 0
Instance35
Gap

2.41%
2.41%
2.41%
2.35%
0
CPXPARAM_MIP_Cuts_Gomory-Disjunctive-LiftProj-MIRCut:Gomory 0
CPXPARAM_MIP_Cuts_Gomory-Disjunctive-LiftProj-MIRCut:Disjunctive 0
CPXPARAM_MIP_Cuts_Gomory-Disjunctive-LiftProj-MIRCut:LiftProj 1
CPXPARAM_MIP_Cuts_Gomory-Disjunctive-LiftProj-MIRCut:MIRCut 0
Instance36
Gap



6.99%
6.99%
6.99%
6.42%
6.14%
5.74%
4.98%
4.88%
3.85%
3.43%
1.70%
1.70%
0.59%
0.59%
0
CPXPARAM_MIP_Cuts_Gomory-Disjunctive-LiftProj-MIRCut:Gomory 0
CPXPARAM_MIP_Cuts_Gomory-Disjunctive-LiftProj-MIRCut:Disjunctive 2
CPXPARAM_MIP_Cuts_Gomory-Disjunctive-LiftProj-MIRCut:LiftProj 2
CPXPARAM_MIP_Cuts_Gomory-Disjunctive-LiftProj-MIRCut:MIRCut 0
Instance37
Gap










































33.42%
29.91%
CPXPARAM_MIP_Cuts_Gomory-Disjunctive-LiftProj-MIRCut:Gomory 1
CPXPARAM_MIP_Cuts_Gomory-Disjunctive-LiftProj-MIRCut:Disjunctive 24
CPXPARAM_MIP_Cuts_Gomory-Disjunctive-LiftProj-MIRCut:LiftProj 0
CPXPARAM_MIP_Cuts_Gomory-Disjunctive-LiftProj-MIRCut:MIRCut 0
Instance38
Gap

0.21%
0.21%
0.21%
0.21%
0
CPXPARAM_MIP_Cuts_Gomory-Disjunctive-LiftProj-MIRCut:Gomory 0
CPXPARAM_MIP_Cuts_Gomory-Disjunctive-LiftProj-MIRCut:Disjunctive 0
CPXPARAM_MIP_Cuts_Gomory-Disjunctive-LiftProj-MIRCut:LiftProj 1
CPXPARAM_MIP_Cuts_Gomory-Disjunctive-LiftProj-MIRCut:MIRCut 1
Instance39
Gap


0.50%
0.50%
0.50%
0
CPXPARAM_MIP_Cuts_Gomory-Disjunctive-LiftProj-MIRCut:Gomory 0
CPXPARAM_MIP_Cuts_Gomory-Disjunctive-LiftProj-MIRCut:Disjunctive 0
CPXPARAM_MIP_Cuts_Gomory-Disjunctive-LiftProj-MIRCut:LiftProj 0
CPXPARAM_MIP_Cuts_Gomory-Disjunctive-LiftProj-MIRCut:MIRCut 0
